instances/pace16/unsolved/aes_64_1_keyfind_1.gaifman.gr
c Gaifman graph of CNF formula
c md5sum 9e18e0ee8a56ea2c59fe8e682ff6c747  sc14-app/aes_64_1_keyfind_1.cnf
p tw 596 2092
1 65
1 193
2 66
2 194
3 67
3 195
4 68
4 196
5 69
5 197
6 70
6 198
7 71
7 199
8 72
8 200
9 73
9 201
10 74
10 202
11 75
11 203
12 76
12 204
13 77
13 205
14 78
14 206
15 79
15 207
16 80
16 208
17 81
17 209
18 82
18 210
19 83
19 211
20 84
20 212
21 85
21 213
22 86
22 214
23 87
23 215
24 88
24 216
25 89
25 217
26 90
26 218
27 91
27 219
28 92
28 220
29 93
29 221
30 94
30 222
31 95
31 223
32 96
32 224
33 97
33 225
34 98
34 226
35 99
35 227
36 100
36 228
37 101
37 229
38 102
38 230
39 103
39 231
40 104
40 232
41 105
41 233
42 106
42 234
43 107
43 235
44 108
44 236
45 109
45 237
46 110
46 238
47 111
47 239
48 112
48 240
49 113
49 241
50 114
50 242
51 115
51 243
52 116
52 244
53 117
53 245
54 118
54 246
55 119
55 247
56 120
56 248
57 121
57 249
58 122
58 250
59 123
59 251
60 124
60 252
61 125
61 253
62 126
62 254
63 127
63 255
64 128
64 256
65 193
65 257
65 577
65 581
66 194
66 258
66 578
66 582
67 195
67 259
67 579
67 583
68 196
68 260
68 580
68 584
69 197
69 261
69 585
70 198
70 262
70 586
71 199
71 263
71 587
72 200
72 264
72 588
73 201
73 265
73 589
74 202
74 266
74 590
75 203
75 267
75 591
76 204
76 268
76 592
77 205
77 269
77 593
78 206
78 270
78 594
79 207
79 271
79 595
80 208
80 272
80 596
81 209
81 257
81 273
82 210
82 258
82 274
83 211
83 259
83 275
84 212
84 260
84 276
85 213
85 261
85 277
86 214
86 262
86 278
87 215
87 263
87 279
88 216
88 264
88 280
89 217
89 265
89 281
90 218
90 266
90 282
91 219
91 267
91 283
92 220
92 268
92 284
93 221
93 269
93 285
94 222
94 270
94 286
95 223
95 271
95 287
96 224
96 272
96 288
97 225
97 273
97 289
98 226
98 274
98 290
99 227
99 275
99 291
100 228
100 276
100 292
101 229
101 277
101 293
102 230
102 278
102 294
103 231
103 279
103 295
104 232
104 280
104 296
105 233
105 281
105 297
106 234
106 282
106 298
107 235
107 283
107 299
108 236
108 284
108 300
109 237
109 285
109 301
110 238
110 286
110 302
111 239
111 287
111 303
112 240
112 288
112 304
113 114
113 115
113 116
113 241
113 289
113 305
113 593
113 594
113 595
113 596
114 115
114 116
114 242
114 290
114 306
114 593
114 594
114 595
114 596
115 116
115 243
115 291
115 307
115 593
115 594
115 595
115 596
116 244
116 292
116 308
116 593
116 594
116 595
116 596
117 118
117 119
117 120
117 245
117 293
117 309
117 581
117 582
117 583
117 584
118 119
118 120
118 246
118 294
118 310
118 581
118 582
118 583
118 584
119 120
119 247
119 295
119 311
119 581
119 582
119 583
119 584
120 248
120 296
120 312
120 581
120 582
120 583
120 584
121 122
121 123
121 124
121 249
121 297
121 313
121 585
121 586
121 587
121 588
122 123
122 124
122 250
122 298
122 314
122 585
122 586
122 587
122 588
123 124
123 251
123 299
123 315
123 585
123 586
123 587
123 588
124 252
124 300
124 316
124 585
124 586
124 587
124 588
125 126
125 127
125 128
125 253
125 301
125 317
125 589
125 590
125 591
125 592
126 127
126 128
126 254
126 302
126 318
126 589
126 590
126 591
126 592
127 128
127 255
127 303
127 319
127 589
127 590
127 591
127 592
128 256
128 304
128 320
128 589
128 590
128 591
128 592
129 257
129 321
130 258
130 322
131 259
131 323
132 260
132 324
133 261
133 325
134 262
134 326
135 263
135 327
136 264
136 328
137 265
137 329
138 266
138 330
139 267
139 331
140 268
140 332
141 269
141 333
142 270
142 334
143 271
143 335
144 272
144 336
145 273
145 337
146 274
146 338
147 275
147 339
148 276
148 340
149 277
149 341
150 278
150 342
151 279
151 343
152 280
152 344
153 281
153 345
154 282
154 346
155 283
155 347
156 284
156 348
157 285
157 349
158 286
158 350
159 287
159 351
160 288
160 352
161 289
161 353
162 290
162 354
163 291
163 355
164 292
164 356
165 293
165 357
166 294
166 358
167 295
167 359
168 296
168 360
169 297
169 361
170 298
170 362
171 299
171 363
172 300
172 364
173 301
173 365
174 302
174 366
175 303
175 367
176 304
176 368
177 305
177 369
178 306
178 370
179 307
179 371
180 308
180 372
181 309
181 373
182 310
182 374
183 311
183 375
184 312
184 376
185 313
185 377
186 314
186 378
187 315
187 379
188 316
188 380
189 317
189 381
190 318
190 382
191 319
191 383
192 320
192 384
193 194
193 195
193 196
193 385
193 386
193 387
193 388
194 195
194 196
194 385
194 386
194 387
194 388
195 196
195 385
195 386
195 387
195 388
196 385
196 386
196 387
196 388
197 198
197 199
197 200
197 437
197 438
197 439
197 440
198 199
198 200
198 437
198 438
198 439
198 440
199 200
199 437
199 438
199 439
199 440
200 437
200 438
200 439
200 440
201 202
201 203
201 204
201 425
201 426
201 427
201 428
202 203
202 204
202 425
202 426
202 427
202 428
203 204
203 425
203 426
203 427
203 428
204 425
204 426
204 427
204 428
205 206
205 207
205 208
205 413
205 414
205 415
205 416
206 207
206 208
206 413
206 414
206 415
206 416
207 208
207 413
207 414
207 415
207 416
208 413
208 414
208 415
208 416
209 210
209 211
209 212
209 401
209 402
209 403
209 404
210 211
210 212
210 401
210 402
210 403
210 404
211 212
211 401
211 402
211 403
211 404
212 401
212 402
212 403
212 404
213 214
213 215
213 216
213 389
213 390
213 391
213 392
214 215
214 216
214 389
214 390
214 391
214 392
215 216
215 389
215 390
215 391
215 392
216 389
216 390
216 391
216 392
217 218
217 219
217 220
217 441
217 442
217 443
217 444
218 219
218 220
218 441
218 442
218 443
218 444
219 220
219 441
219 442
219 443
219 444
220 441
220 442
220 443
220 444
221 222
221 223
221 224
221 429
221 430
221 431
221 432
222 223
222 224
222 429
222 430
222 431
222 432
223 224
223 429
223 430
223 431
223 432
224 429
224 430
224 431
224 432
225 226
225 227
225 228
225 417
225 418
225 419
225 420
226 227
226 228
226 417
226 418
226 419
226 420
227 228
227 417
227 418
227 419
227 420
228 417
228 418
228 419
228 420
229 230
229 231
229 232
229 405
229 406
229 407
229 408
230 231
230 232
230 405
230 406
230 407
230 408
231 232
231 405
231 406
231 407
231 408
232 405
232 406
232 407
232 408
233 234
233 235
233 236
233 393
233 394
233 395
233 396
234 235
234 236
234 393
234 394
234 395
234 396
235 236
235 393
235 394
235 395
235 396
236 393
236 394
236 395
236 396
237 238
237 239
237 240
237 445
237 446
237 447
237 448
238 239
238 240
238 445
238 446
238 447
238 448
239 240
239 445
239 446
239 447
239 448
240 445
240 446
240 447
240 448
241 242
241 243
241 244
241 433
241 434
241 435
241 436
242 243
242 244
242 433
242 434
242 435
242 436
243 244
243 433
243 434
243 435
243 436
244 433
244 434
244 435
244 436
245 246
245 247
245 248
245 421
245 422
245 423
245 424
246 247
246 248
246 421
246 422
246 423
246 424
247 248
247 421
247 422
247 423
247 424
248 421
248 422
248 423
248 424
249 250
249 251
249 252
249 409
249 410
249 411
249 412
250 251
250 252
250 409
250 410
250 411
250 412
251 252
251 409
251 410
251 411
251 412
252 409
252 410
252 411
252 412
253 254
253 255
253 256
253 397
253 398
253 399
253 400
254 255
254 256
254 397
254 398
254 399
254 400
255 256
255 397
255 398
255 399
255 400
256 397
256 398
256 399
256 400
257 273
257 321
257 577
257 581
258 274
258 322
258 578
258 582
259 275
259 323
259 579
259 583
260 276
260 324
260 580
260 584
261 277
261 325
261 585
262 278
262 326
262 586
263 279
263 327
263 587
264 280
264 328
264 588
265 281
265 329
265 589
266 282
266 330
266 590
267 283
267 331
267 591
268 284
268 332
268 592
269 285
269 333
269 593
270 286
270 334
270 594
271 287
271 335
271 595
272 288
272 336
272 596
273 289
273 337
274 290
274 338
275 291
275 339
276 292
276 340
277 293
277 341
278 294
278 342
279 295
279 343
280 296
280 344
281 297
281 345
282 298
282 346
283 299
283 347
284 300
284 348
285 301
285 349
286 302
286 350
287 303
287 351
288 304
288 352
289 305
289 353
290 306
290 354
291 307
291 355
292 308
292 356
293 309
293 357
294 310
294 358
295 311
295 359
296 312
296 360
297 313
297 361
298 314
298 362
299 315
299 363
300 316
300 364
301 317
301 365
302 318
302 366
303 319
303 367
304 320
304 368
305 369
306 370
307 371
308 372
309 373
310 374
311 375
312 376
313 377
314 378
315 379
316 380
317 381
318 382
319 383
320 384
321 393
321 397
321 473
321 477
322 394
322 398
322 474
322 478
323 395
323 399
323 475
323 479
324 396
324 400
324 476
324 480
325 385
325 397
325 465
325 469
326 386
326 398
326 466
326 470
327 387
327 399
327 467
327 471
328 388
328 400
328 468
328 472
329 385
329 389
329 457
329 461
330 386
330 390
330 458
330 462
331 387
331 391
331 459
331 463
332 388
332 392
332 460
332 464
333 389
333 393
333 449
333 453
334 390
334 394
334 450
334 454
335 391
335 395
335 451
335 455
336 392
336 396
336 452
336 456
337 409
337 413
337 505
337 509
338 410
338 414
338 506
338 510
339 411
339 415
339 507
339 511
340 412
340 416
340 508
340 512
341 401
341 413
341 497
341 501
342 402
342 414
342 498
342 502
343 403
343 415
343 499
343 503
344 404
344 416
344 500
344 504
345 401
345 405
345 489
345 493
346 402
346 406
346 490
346 494
347 403
347 407
347 491
347 495
348 404
348 408
348 492
348 496
349 405
349 409
349 481
349 485
350 406
350 410
350 482
350 486
351 407
351 411
351 483
351 487
352 408
352 412
352 484
352 488
353 425
353 429
353 537
353 541
354 426
354 430
354 538
354 542
355 427
355 431
355 539
355 543
356 428
356 432
356 540
356 544
357 417
357 429
357 529
357 533
358 418
358 430
358 530
358 534
359 419
359 431
359 531
359 535
360 420
360 432
360 532
360 536
361 417
361 421
361 521
361 525
362 418
362 422
362 522
362 526
363 419
363 423
363 523
363 527
364 420
364 424
364 524
364 528
365 421
365 425
365 513
365 517
366 422
366 426
366 514
366 518
367 423
367 427
367 515
367 519
368 424
368 428
368 516
368 520
369 441
369 445
369 569
369 573
370 442
370 446
370 570
370 574
371 443
371 447
371 571
371 575
372 444
372 448
372 572
372 576
373 433
373 445
373 561
373 565
374 434
374 446
374 562
374 566
375 435
375 447
375 563
375 567
376 436
376 448
376 564
376 568
377 433
377 437
377 553
377 557
378 434
378 438
378 554
378 558
379 435
379 439
379 555
379 559
380 436
380 440
380 556
380 560
381 437
381 441
381 545
381 549
382 438
382 442
382 546
382 550
383 439
383 443
383 547
383 551
384 440
384 444
384 548
384 552
385 386
385 387
385 388
385 389
385 397
385 453
385 454
385 456
385 457
385 461
385 465
385 469
385 479
385 480
386 387
386 388
386 390
386 398
386 453
386 454
386 458
386 462
386 466
386 470
386 477
387 388
387 391
387 399
387 453
387 454
387 455
387 456
387 459
387 463
387 467
387 471
387 478
388 392
388 400
388 456
388 460
388 464
388 468
388 472
388 479
388 480
389 390
389 391
389 392
389 393
389 449
389 453
389 457
389 461
389 471
389 472
389 473
389 474
389 476
390 391
390 392
390 394
390 450
390 454
390 458
390 462
390 469
390 473
390 474
391 392
391 395
391 451
391 455
391 459
391 463
391 470
391 473
391 474
391 475
391 476
392 396
392 452
392 456
392 460
392 464
392 471
392 472
392 476
393 394
393 395
393 396
393 397
393 449
393 453
393 463
393 464
393 465
393 466
393 468
393 473
393 477
394 395
394 396
394 398
394 450
394 454
394 461
394 465
394 466
394 474
394 478
395 396
395 399
395 451
395 455
395 462
395 465
395 466
395 467
395 468
395 475
395 479
396 400
396 452
396 456
396 463
396 464
396 468
396 476
396 480
397 398
397 399
397 400
397 451
397 452
397 457
397 458
397 460
397 465
397 469
397 473
397 477
398 399
398 400
398 449
398 457
398 458
398 466
398 470
398 474
398 478
399 400
399 450
399 457
399 458
399 459
399 460
399 467
399 471
399 475
399 479
400 451
400 452
400 460
400 468
400 472
400 476
400 480
401 402
401 403
401 404
401 405
401 413
401 485
401 486
401 488
401 489
401 493
401 497
401 501
401 511
401 512
402 403
402 404
402 406
402 414
402 485
402 486
402 490
402 494
402 498
402 502
402 509
403 404
403 407
403 415
403 485
403 486
403 487
403 488
403 491
403 495
403 499
403 503
403 510
404 408
404 416
404 488
404 492
404 496
404 500
404 504
404 511
404 512
405 406
405 407
405 408
405 409
405 481
405 485
405 489
405 493
405 503
405 504
405 505
405 506
405 508
406 407
406 408
406 410
406 482
406 486
406 490
406 494
406 501
406 505
406 506
407 408
407 411
407 483
407 487
407 491
407 495
407 502
407 505
407 506
407 507
407 508
408 412
408 484
408 488
408 492
408 496
408 503
408 504
408 508
409 410
409 411
409 412
409 413
409 481
409 485
409 495
409 496
409 497
409 498
409 500
409 505
409 509
410 411
410 412
410 414
410 482
410 486
410 493
410 497
410 498
410 506
410 510
411 412
411 415
411 483
411 487
411 494
411 497
411 498
411 499
411 500
411 507
411 511
412 416
412 484
412 488
412 495
412 496
412 500
412 508
412 512
413 414
413 415
413 416
413 483
413 484
413 489
413 490
413 492
413 497
413 501
413 505
413 509
414 415
414 416
414 481
414 489
414 490
414 498
414 502
414 506
414 510
415 416
415 482
415 489
415 490
415 491
415 492
415 499
415 503
415 507
415 511
416 483
416 484
416 492
416 500
416 504
416 508
416 512
417 418
417 419
417 420
417 421
417 429
417 517
417 518
417 520
417 521
417 525
417 529
417 533
417 543
417 544
418 419
418 420
418 422
418 430
418 517
418 518
418 522
418 526
418 530
418 534
418 541
419 420
419 423
419 431
419 517
419 518
419 519
419 520
419 523
419 527
419 531
419 535
419 542
420 424
420 432
420 520
420 524
420 528
420 532
420 536
420 543
420 544
421 422
421 423
421 424
421 425
421 513
421 517
421 521
421 525
421 535
421 536
421 537
421 538
421 540
422 423
422 424
422 426
422 514
422 518
422 522
422 526
422 533
422 537
422 538
423 424
423 427
423 515
423 519
423 523
423 527
423 534
423 537
423 538
423 539
423 540
424 428
424 516
424 520
424 524
424 528
424 535
424 536
424 540
425 426
425 427
425 428
425 429
425 513
425 517
425 527
425 528
425 529
425 530
425 532
425 537
425 541
426 427
426 428
426 430
426 514
426 518
426 525
426 529
426 530
426 538
426 542
427 428
427 431
427 515
427 519
427 526
427 529
427 530
427 531
427 532
427 539
427 543
428 432
428 516
428 520
428 527
428 528
428 532
428 540
428 544
429 430
429 431
429 432
429 515
429 516
429 521
429 522
429 524
429 529
429 533
429 537
429 541
430 431
430 432
430 513
430 521
430 522
430 530
430 534
430 538
430 542
431 432
431 514
431 521
431 522
431 523
431 524
431 531
431 535
431 539
431 543
432 515
432 516
432 524
432 532
432 536
432 540
432 544
433 434
433 435
433 436
433 437
433 445
433 549
433 550
433 552
433 553
433 557
433 561
433 565
433 575
433 576
434 435
434 436
434 438
434 446
434 549
434 550
434 554
434 558
434 562
434 566
434 573
435 436
435 439
435 447
435 549
435 550
435 551
435 552
435 555
435 559
435 563
435 567
435 574
436 440
436 448
436 552
436 556
436 560
436 564
436 568
436 575
436 576
437 438
437 439
437 440
437 441
437 545
437 549
437 553
437 557
437 567
437 568
437 569
437 570
437 572
438 439
438 440
438 442
438 546
438 550
438 554
438 558
438 565
438 569
438 570
439 440
439 443
439 547
439 551
439 555
439 559
439 566
439 569
439 570
439 571
439 572
440 444
440 548
440 552
440 556
440 560
440 567
440 568
440 572
441 442
441 443
441 444
441 445
441 545
441 549
441 559
441 560
441 561
441 562
441 564
441 569
441 573
442 443
442 444
442 446
442 546
442 550
442 557
442 561
442 562
442 570
442 574
443 444
443 447
443 547
443 551
443 558
443 561
443 562
443 563
443 564
443 571
443 575
444 448
444 548
444 552
444 559
444 560
444 564
444 572
444 576
445 446
445 447
445 448
445 547
445 548
445 553
445 554
445 556
445 561
445 565
445 569
445 573
446 447
446 448
446 545
446 553
446 554
446 562
446 566
446 570
446 574
447 448
447 546
447 553
447 554
447 555
447 556
447 563
447 567
447 571
447 575
448 547
448 548
448 556
448 564
448 568
448 572
448 576
449 453
450 454
451 452
451 455
452 456
453 454
455 456
457 458
457 461
458 462
459 460
459 463
460 464
463 464
465 466
465 469
466 470
467 468
467 471
468 472
471 472
473 474
473 477
474 478
475 476
475 479
476 480
479 480
481 485
482 486
483 484
483 487
484 488
485 486
487 488
489 490
489 493
490 494
491 492
491 495
492 496
495 496
497 498
497 501
498 502
499 500
499 503
500 504
503 504
505 506
505 509
506 510
507 508
507 511
508 512
511 512
513 517
514 518
515 516
515 519
516 520
517 518
519 520
521 522
521 525
522 526
523 524
523 527
524 528
527 528
529 530
529 533
530 534
531 532
531 535
532 536
535 536
537 538
537 541
538 542
539 540
539 543
540 544
543 544
545 549
546 550
547 548
547 551
548 552
549 550
551 552
553 554
553 557
554 558
555 556
555 559
556 560
559 560
561 562
561 565
562 566
563 564
563 567
564 568
567 568
569 570
569 573
570 574
571 572
571 575
572 576
575 576
577 581
578 582
579 583
580 584
581 582
581 583
581 584
582 583
582 584
583 584
585 586
585 587
585 588
586 587
586 588
587 588
589 590
589 591
589 592
590 591
590 592
591 592
593 594
593 595
593 596
594 595
594 596
595 596
